SPARKNaCl/why3-cvc5/sparknacl-aes.adb_96_33_loop_invariant_preserv_1.smt2
;; produced by cvc5.drv ;;
(set-logic ALL)
(set-info :smt-lib-version 2.6)
;;; generated by SMT-LIB2 driver
;;; SMT-LIB2 driver: bit-vectors, common part
;;; SMT-LIB2: integer arithmetic
;; "pow2"
(declare-fun pow2 (Int) Int)

(declare-const two_power_size_minus_one Int)

;; "two_power_size_minus_one_val"
(assert (= two_power_size_minus_one (pow2 (- 32 1))))

;; "min"
(define-fun min ((x Int) (y Int)) Int
  (ite (<= x y) x y))

;; "max"
(define-fun max ((x Int) (y Int)) Int
  (ite (<= x y) y x))

;; "Min_r"
(assert (forall ((x Int) (y Int)) (=> (<= y x) (= (min x y) y))))

;; "Max_l"
(assert (forall ((x Int) (y Int)) (=> (<= y x) (= (max x y) x))))

;; "Min_comm"
(assert (forall ((x Int) (y Int)) (= (min x y) (min y x))))

;; "Max_comm"
(assert (forall ((x Int) (y Int)) (= (max x y) (max y x))))

;; "Min_assoc"
(assert
  (forall ((x Int) (y Int) (z Int)) (= (min (min x y) z) (min x (min y z)))))

;; "Max_assoc"
(assert
  (forall ((x Int) (y Int) (z Int)) (= (max (max x y) z) (max x (max y z)))))

(declare-const two_power_size_minus_one1 Int)

;; "two_power_size_minus_one_val"
(assert (= two_power_size_minus_one1 (pow2 (- 8 1))))

(declare-sort byte 0)

(declare-datatypes ((byte__init_wrapper 0))
  (((byte__init_wrapperqtmk (rec__value byte)(us_attr__init Bool)))))

(declare-sort map1 0)

;; "has_bounds"
(declare-fun has_bounds (map1
  Int
  Int) Bool)

;; "get"
(declare-fun get (map1
  Int) byte__init_wrapper)

;; "slide"
(declare-fun slide (map1
  Int
  Int) map1)

;; "slide_eq"
(assert
  (forall ((a map1) (first Int))
    (! (= (slide a first first) a) :pattern ((slide a first first)) )))

;; "slide_def"
(assert
  (forall ((a map1) (old_first Int) (new_first Int))
    (! (and
         (forall ((i Int))
           (! (= (get (slide a old_first new_first) i) (get
                                                         a
                                                         (- i (- new_first old_first)))) :pattern (
           (get
             (slide a old_first new_first)
             i)) ))
         (forall ((new_last Int))
           (! (=>
                (has_bounds a old_first (- new_last (- new_first old_first)))
                (has_bounds (slide a old_first new_first) new_first new_last)) :pattern (
           (has_bounds
             (slide a old_first new_first)
             new_first
             new_last)) ))) :pattern ((slide a old_first new_first)) )))

;; "slice"
(declare-fun slice (map1
  Int
  Int) map1)

;; "slice_eq"
(assert
  (forall ((a map1) (f Int) (l Int))
    (! (=> (has_bounds a f l) (= (slice a f l) a)) :pattern ((slice a f l)
    (has_bounds a f l)) )))

;; "slice_slice"
(assert
  (forall ((a map1) (f1 Int) (l1 Int) (f2 Int) (l2 Int))
    (! (=>
         (and (<= f1 f2) (<= l2 l1))
         (= (slice (slice a f1 l1) f2 l2) (slice a f2 l2))) :pattern (
    (slice
      (slice a f1 l1)
      f2
      l2)) )))

;; "slice_def"
(assert
  (forall ((a map1) (f Int) (l Int))
    (! (forall ((i Int))
         (! (=> (and (<= f i) (<= i l)) (= (get (slice a f l) i) (get a i))) :pattern (
         (get
           (slice a f l)
           i)) :pattern ((get a i)) )) :pattern ((slice a f l)) )))

;; "slice_has_bounds"
(assert
  (forall ((a map1) (f Int) (l Int))
    (! (has_bounds (slice a f l) f l) :pattern ((has_bounds
                                                  (slice a f l)
                                                  f
                                                  l)) )))

(declare-sort u32 0)

;; "to_rep"
(declare-fun to_rep (u32) (_ BitVec 32))

;; "of_rep"
(declare-fun of_rep ((_ BitVec 32)) u32)

;; "inversion_axiom"
(assert
  (forall ((x u32)) (! (= (of_rep (to_rep x)) x) :pattern ((to_rep x)) )))

;; "range_axiom"
(assert true)

;; "coerce_axiom"
(assert
  (forall ((x (_ BitVec 32)))
    (! (= (to_rep (of_rep x)) x) :pattern ((to_rep (of_rep x))) )))

(declare-sort map2 0)

;; "has_bounds"
(declare-fun has_bounds1 (map2
  Int
  Int) Bool)

;; "get"
(declare-fun get1 (map2
  Int) u32)

(declare-const state map2)

;; "to_rep"
(declare-fun to_rep1 (byte) (_ BitVec 8))

;; "of_rep"
(declare-fun of_rep1 ((_ BitVec 8)) byte)

;; "inversion_axiom"
(assert
  (forall ((x byte)) (! (= (of_rep1 (to_rep1 x)) x) :pattern ((to_rep1 x)) )))

;; "range_axiom"
(assert true)

;; "coerce_axiom"
(assert
  (forall ((x (_ BitVec 8)))
    (! (= (to_rep1 (of_rep1 x)) x) :pattern ((to_rep1 (of_rep1 x))) )))

;; "__is_initialized"
(define-fun us_is_initialized ((temp___expr_809 map1)) Bool
  (forall ((temp___810 Int))
    (=>
      (and (<= 0 temp___810) (<= temp___810 3))
      (= (us_attr__init (get temp___expr_809 temp___810)) true))))

(declare-sort tinteger_32B 0)

;; "tinteger_32B'int"
(declare-fun tinteger_32Bqtint (tinteger_32B) Int)

;; "tinteger_32B'axiom"
(assert
  (forall ((i tinteger_32B))
    (and
      (<= (- 2147483648) (tinteger_32Bqtint i))
      (<= (tinteger_32Bqtint i) 2147483647))))

;; "in_range"
(define-fun in_range ((x Int)) Bool
  (and (<= (- 2147483648) x) (<= x 2147483647)))

;; "to_rep"
(define-fun to_rep2 ((x tinteger_32B)) Int
  (tinteger_32Bqtint x))

;; "of_rep"
(declare-fun of_rep2 (Int) tinteger_32B)

;; "inversion_axiom"
(assert
  (forall ((x tinteger_32B))
    (! (= (of_rep2 (to_rep2 x)) x) :pattern ((to_rep2 x)) )))

;; "range_axiom"
(assert
  (forall ((x tinteger_32B))
    (! (in_range (to_rep2 x)) :pattern ((to_rep2 x)) )))

;; "coerce_axiom"
(assert
  (forall ((x Int))
    (! (=> (in_range x) (= (to_rep2 (of_rep2 x)) x)) :pattern ((to_rep2
                                                                 (of_rep2 x))) )))

(declare-datatypes ((t 0))
  (((tqtmk (rec__first tinteger_32B)(rec__last tinteger_32B)))))

;; "mk"
(declare-fun mk (Int
  Int) t)

;; "mk_def"
(assert
  (forall ((f Int) (l Int))
    (! (=>
         (in_range f)
         (=>
           (in_range l)
           (and
             (= (to_rep2 (rec__first (mk f l))) f)
             (= (to_rep2 (rec__last (mk f l))) l)))) :pattern ((mk f l)) )))

(declare-datatypes ((us_t 0))
  (((us_tqtmk (elts map1)(rt t)))))

;; "to_array"
(define-fun to_array ((a us_t)) map1
  (elts a))

;; "of_array"
(define-fun of_array ((a map1) (f Int) (l Int)) us_t
  (us_tqtmk a (mk f l)))

;; "first"
(define-fun first ((a us_t)) Int
  (to_rep2 (rec__first (rt a))))

;; "last"
(define-fun last ((a us_t)) Int
  (to_rep2 (rec__last (rt a))))

;; Goal "def'vc"
;; File "sparknacl-aes.adb", line 21, characters 0-0
(assert
  (not
  (forall ((output map1))
    (=>
      (has_bounds output 0 15)
      (=>
        (has_bounds1 state 0 3)
        (forall ((i Int))
          (=>
            (= i 0)
            (=>
              (= (and (ite (<= 0 i) true false) (ite (<= i 3) true false)) true)
              (let ((temp___1471 (+ (* 4 i) 3)))
                (let ((temp___1470 (* 4 i)))
                  (=>
                    (=>
                      (<= temp___1470 temp___1471)
                      (and
                        (and (<= 0 temp___1470) (<= temp___1470 15))
                        (and (<= 0 temp___1471) (<= temp___1471 15))))
                    (=>
                      (ite (<= temp___1470 temp___1471)
                        (and
                          (<= 0 3)
                          (= (- temp___1471 temp___1470) (- 3 0)))
                        (< 3 0))
                      (forall ((o (_ BitVec 32)))
                        (=>
                          (= (to_rep (get1 state i)) o)
                          (forall ((param__output map1))
                            (=>
                              (and
                                (us_is_initialized param__output)
                                (has_bounds param__output 0 3))
                              (forall ((usf map1))
                                (=>
                                  (forall ((temp___1480 Int))
                                    (ite (and
                                           (<= (* 4 i) temp___1480)
                                           (<= temp___1480 (+ (* 4 i) 3)))
                                      (= (get usf temp___1480) (get
                                                                 (slide
                                                                   param__output
                                                                   0
                                                                   (* 4 i))
                                                                 temp___1480))
                                      (= (get usf temp___1480) (get
                                                                 output
                                                                 temp___1480))))
                                  (forall ((output1 map1))
                                    (=>
                                      (= output1 usf)
                                      (let ((temp___1490 (+ (* 4 i) 3)))
                                        (=>
                                          (=>
                                            (<= 0 temp___1490)
                                            (and
                                              (and (<= 0 0) (<= 0 15))
                                              (and
                                                (<= 0 temp___1490)
                                                (<= temp___1490 15))))
                                          (forall ((output2 map1) (i1 Int))
                                            (=>
                                              (let ((temp___1498 (let ((temp___1497 (+ (* 4 i1) 3)))
                                                                   (of_array
                                                                    (slice
                                                                    output2
                                                                    0
                                                                    temp___1497)
                                                                    0
                                                                    temp___1497))))
                                                (forall ((temp___1499 Int))
                                                  (=>
                                                    (and
                                                      (<= (first temp___1498) temp___1499)
                                                      (<= temp___1499 
                                                      (last
                                                        temp___1498)))
                                                    (= (us_attr__init
                                                         (get
                                                           (to_array
                                                             temp___1498)
                                                           temp___1499)) true))))
                                              (=>
                                                (= (and (ite (has_bounds
                                                               output2
                                                               0
                                                               15)
                                                          true
                                                          false) (ite 
                                                                   (and
                                                                    (<= 0 i1)
                                                                    (<= i1 3))
                                                                   true
                                                                   false)) true)
                                                (=>
                                                  (not (= i1 3))
                                                  (forall ((i2 Int))
                                                    (=>
                                                      (= i2 (+ i1 1))
                                                      (let ((temp___14711 (+ (* 4 i2) 3)))
                                                        (let ((temp___14701 (* 4 i2)))
                                                          (=>
                                                            (=>
                                                              (<= temp___14701 temp___14711)
                                                              (and
                                                                (and
                                                                  (<= 0 temp___14701)
                                                                  (<= temp___14701 15))
                                                                (and
                                                                  (<= 0 temp___14711)
                                                                  (<= temp___14711 15))))
                                                            (=>
                                                              (ite (<= temp___14701 temp___14711)
                                                                (and
                                                                  (<= 0 3)
                                                                  (= (- temp___14711 temp___14701) (- 3 0)))
                                                                (< 3 0))
                                                              (forall 
                                                                ((o1 (_ BitVec 32)))
                                                                (=>
                                                                  (= 
                                                                  (to_rep
                                                                    (get1
                                                                    state
                                                                    i2)) o1)
                                                                  (forall 
                                                                    ((param__output1 map1))
                                                                    (=>
                                                                    (and
                                                                    (us_is_initialized
                                                                    param__output1)
                                                                    (has_bounds
                                                                    param__output1
                                                                    0
                                                                    3))
                                                                    (forall 
                                                                    ((usf1 map1))
                                                                    (=>
                                                                    (forall 
                                                                    ((temp___1480 Int))
                                                                    (ite 
                                                                    (and
                                                                    (<= (* 4 i2) temp___1480)
                                                                    (<= temp___1480 (+ (* 4 i2) 3)))
                                                                    (= 
                                                                    (get
                                                                    usf1
                                                                    temp___1480) 
                                                                    (get
                                                                    (slide
                                                                    param__output1
                                                                    0
                                                                    (* 4 i2))
                                                                    temp___1480))
                                                                    (= 
                                                                    (get
                                                                    usf1
                                                                    temp___1480) 
                                                                    (get
                                                                    output2
                                                                    temp___1480))))
                                                                    (forall 
                                                                    ((output3 map1))
                                                                    (=>
                                                                    (= output3 usf1)
                                                                    (let ((temp___14901 (+ (* 4 i2) 3)))
                                                                    (=>
                                                                    (=>
                                                                    (<= 0 temp___14901)
                                                                    (and
                                                                    (and
                                                                    (<= 0 0)
                                                                    (<= 0 15))
                                                                    (and
                                                                    (<= 0 temp___14901)
                                                                    (<= temp___14901 15))))
                                                                    (let ((temp___1498 
                                                                    (let ((temp___1497 (+ (* 4 i2) 3)))
                                                                    (of_array
                                                                    (slice
                                                                    output3
                                                                    0
                                                                    temp___1497)
                                                                    0
                                                                    temp___1497))))
                                                                    (forall 
                                                                    ((temp___1499 Int))
                                                                    (=>
                                                                    (and
                                                                    (<= 
                                                                    (first
                                                                    temp___1498) temp___1499)
                                                                    (<= temp___1499 
                                                                    (last
                                                                    temp___1498)))
                                                                    (= 
                                                                    (us_attr__init
                                                                    (get
                                                                    (to_array
                                                                    temp___1498)
                                                                    temp___1499)) true))))))))))))))))))))))))))))))))))))))))))))))

(check-sat)
